France 0
5 42 0 
1 3000 482 328 383 351 579 150 376 181 358 499 191 399 548 293 515 395 172 264 478 424 426 609 562 363 506 422 342 418 457 350 296 437 418 456 295 186 600 323 277 354 546 363 
2 3000 726 447 211 396 797 258 164 534 536 844 464 255 617 212 568 220 418 288 762 700 740 593 210 609 135 711 89 781 627 40 276 753 399 90 463 527 854 226 649 720 918 543 
3 3000 515 341 581 516 620 348 575 29 314 410 162 594 676 490 654 529 306 369 475 439 398 762 757 421 690 424 514 300 548 532 486 403 591 639 424 207 609 453 128 233 373 316 
4 3000 219 690 655 476 310 484 675 383 674 109 510 642 503 576 508 806 328 671 140 145 53 631 892 213 876 116 739 141 338 734 531 51 549 833 346 225 266 735 248 161 331 676 
5 3000 444 846 317 203 444 436 364 712 901 717 745 272 152 339 116 731 409 714 529 482 573 65 515 400 594 509 597 733 292 555 289 585 144 585 299 532 537 703 711 708 926 907 
